p cnf 30 54
4 0
10 20 6 0
-16 27 22 7 0
20 -12 0
6 0
-22 0
22 30 -25 0
8 0
-27 -14 20 -28 0
-18 0
-16 0
26 28 6 0
3 7 0
-30 -29 -12 22 0
18 -26 0
10 3 30 -25 0
4 0
-18 0
18 0
21 0
10 0
6 20 27 29 30 0
17 0
-30 27 30 15 0
24 4 0
3 4 -26 13 26 0
1 28 23 0
-16 -23 -14 -10 0
8 -6 11 12 0
-29 2 -30 -25 0
10 3 -2 15 0
25 30 0
24 -3 -17 0
19 -21 14 -25 0
-24 17 22 -2 0
-15 12 -28 0
-14 12 7 0
3 14 22 0
-24 11 0
-23 20 0
1 -28 8 19 21 0
17 18 19 22 0
-1 0
11 -21 -14 25 30 0
22 -25 0
-23 1 0
-14 28 0
25 0
19 -18 -25 0
-19 0
-29 20 0
-27 5 6 -19 -13 0
26 0
21 0
